(set-info :smt-lib-version 2.6)
(set-logic QF_NIA)
(set-info :source |
Generated by: Cristina Borralleras, Daniel Larraz, Albert Oliveras, Enric Rodriguez-Carbonell, Albert Rubio
Generated on: 2017-04-27
Generator: VeryMax
Application: Termination proving
Target solver: barcelogic
|)
(set-info :license "https://creativecommons.org/licenses/by/4.0/")
(set-info :category "industrial")
(set-info :status unknown)
(declare-fun Nl8arg11 () Int)
(declare-fun Nl8arg21 () Int)
(declare-fun Nl8arg31 () Int)
(declare-fun Nl8arg51 () Int)
(declare-fun Nl8arg12 () Int)
(declare-fun Nl8arg22 () Int)
(declare-fun Nl8arg32 () Int)
(declare-fun Nl8arg52 () Int)
(declare-fun Nl8arg13 () Int)
(declare-fun Nl8arg23 () Int)
(declare-fun Nl8arg33 () Int)
(declare-fun Nl8arg53 () Int)
(declare-fun lam0n0 () Int)
(declare-fun lam0n1 () Int)
(declare-fun lam0n2 () Int)
(declare-fun lam0n3 () Int)
(declare-fun lam0n4 () Int)
(declare-fun lam0n5 () Int)
(declare-fun lam0n6 () Int)
(declare-fun lam0n7 () Int)
(declare-fun lam0n8 () Int)
(declare-fun lam0n9 () Int)
(declare-fun lam0n10 () Int)
(declare-fun Nl8CT1 () Int)
(declare-fun Nl8CT2 () Int)
(declare-fun Nl8CT3 () Int)
(declare-fun lam1n0 () Int)
(declare-fun lam1n1 () Int)
(declare-fun lam1n2 () Int)
(declare-fun lam1n3 () Int)
(declare-fun lam1n4 () Int)
(declare-fun lam1n5 () Int)
(declare-fun lam1n6 () Int)
(declare-fun lam1n7 () Int)
(declare-fun lam1n8 () Int)
(declare-fun lam1n9 () Int)
(declare-fun lam1n10 () Int)
(declare-fun lam2n0 () Int)
(declare-fun lam2n1 () Int)
(declare-fun lam2n2 () Int)
(declare-fun lam2n3 () Int)
(declare-fun lam2n4 () Int)
(declare-fun lam2n5 () Int)
(declare-fun lam2n6 () Int)
(declare-fun lam2n7 () Int)
(declare-fun lam2n8 () Int)
(declare-fun lam2n9 () Int)
(declare-fun lam2n10 () Int)
(declare-fun lam3n0 () Int)
(declare-fun lam3n1 () Int)
(declare-fun lam3n2 () Int)
(declare-fun lam3n3 () Int)
(declare-fun lam3n4 () Int)
(declare-fun lam3n5 () Int)
(declare-fun lam3n6 () Int)
(declare-fun lam3n7 () Int)
(declare-fun lam3n8 () Int)
(declare-fun lam3n9 () Int)
(declare-fun lam3n10 () Int)
(declare-fun lam4n0 () Int)
(declare-fun lam4n1 () Int)
(declare-fun lam4n2 () Int)
(declare-fun lam4n3 () Int)
(declare-fun lam4n4 () Int)
(declare-fun lam4n5 () Int)
(declare-fun lam4n6 () Int)
(declare-fun lam4n7 () Int)
(declare-fun lam4n8 () Int)
(declare-fun lam4n9 () Int)
(declare-fun lam4n10 () Int)
(declare-fun lam4n11 () Int)
(declare-fun lam4n12 () Int)
(declare-fun lam4n13 () Int)
(declare-fun lam5n0 () Int)
(declare-fun lam5n1 () Int)
(declare-fun lam5n2 () Int)
(declare-fun lam5n3 () Int)
(declare-fun lam5n4 () Int)
(declare-fun lam5n5 () Int)
(declare-fun lam5n6 () Int)
(declare-fun lam5n7 () Int)
(declare-fun lam5n8 () Int)
(declare-fun lam5n9 () Int)
(declare-fun lam5n10 () Int)
(declare-fun lam5n11 () Int)
(declare-fun lam5n12 () Int)
(declare-fun lam5n13 () Int)
(declare-fun lam6n0 () Int)
(declare-fun lam6n1 () Int)
(declare-fun lam6n2 () Int)
(declare-fun lam6n3 () Int)
(declare-fun lam6n4 () Int)
(declare-fun lam6n5 () Int)
(declare-fun lam6n6 () Int)
(declare-fun lam6n7 () Int)
(declare-fun lam6n8 () Int)
(declare-fun lam6n9 () Int)
(declare-fun lam6n10 () Int)
(declare-fun lam6n11 () Int)
(declare-fun lam6n12 () Int)
(declare-fun lam6n13 () Int)
(declare-fun undef10 () Int)
(declare-fun undef406 () Int)
(declare-fun undef60 () Int)
(declare-fun undef11 () Int)
(declare-fun undef69 () Int)
(declare-fun undef407 () Int)
(declare-fun undef62 () Int)
(declare-fun undef61 () Int)
(declare-fun undef70 () Int)
(declare-fun undef64 () Int)
(declare-fun lam10n0 () Int)
(declare-fun lam10n1 () Int)
(declare-fun lam10n2 () Int)
(declare-fun lam10n3 () Int)
(declare-fun lam10n4 () Int)
(declare-fun lam10n5 () Int)
(declare-fun lam10n6 () Int)
(declare-fun lam10n7 () Int)
(declare-fun lam10n8 () Int)
(declare-fun lam10n9 () Int)
(declare-fun lam10n10 () Int)
(declare-fun RFN1_CT () Int)
(declare-fun RFN1_arg1 () Int)
(declare-fun RFN1_arg2 () Int)
(declare-fun RFN1_arg5 () Int)
(declare-fun RFN1_arg3 () Int)
(declare-fun lam8n0 () Int)
(declare-fun lam8n1 () Int)
(declare-fun lam8n2 () Int)
(declare-fun lam8n3 () Int)
(declare-fun lam8n4 () Int)
(declare-fun lam8n5 () Int)
(declare-fun lam8n6 () Int)
(declare-fun lam8n7 () Int)
(declare-fun lam8n8 () Int)
(declare-fun lam8n9 () Int)
(declare-fun lam8n10 () Int)
(declare-fun lam9n0 () Int)
(declare-fun lam9n1 () Int)
(declare-fun lam9n2 () Int)
(declare-fun lam9n3 () Int)
(declare-fun lam9n4 () Int)
(declare-fun lam9n5 () Int)
(declare-fun lam9n6 () Int)
(declare-fun lam9n7 () Int)
(declare-fun lam9n8 () Int)
(declare-fun lam9n9 () Int)
(declare-fun lam9n10 () Int)
(declare-fun lam7n0 () Int)
(declare-fun lam7n1 () Int)
(declare-fun lam7n2 () Int)
(declare-fun lam7n3 () Int)
(declare-fun lam7n4 () Int)
(declare-fun lam7n5 () Int)
(declare-fun lam7n6 () Int)
(declare-fun lam7n7 () Int)
(declare-fun lam7n8 () Int)
(declare-fun lam7n9 () Int)
(declare-fun lam7n10 () Int)
(assert ( and ( <= ( - 1 ) Nl8arg11 ) ( <= Nl8arg11 1 ) ( <= ( - 1 ) Nl8arg21 ) ( <= Nl8arg21 1 ) ( <= ( - 1 ) Nl8arg31 ) ( <= Nl8arg31 1 ) ( <= ( - 1 ) Nl8arg51 ) ( <= Nl8arg51 1 ) ( <= ( - 1 ) Nl8arg12 ) ( <= Nl8arg12 1 ) ( <= ( - 1 ) Nl8arg22 ) ( <= Nl8arg22 1 ) ( <= ( - 1 ) Nl8arg32 ) ( <= Nl8arg32 1 ) ( <= ( - 1 ) Nl8arg52 ) ( <= Nl8arg52 1 ) ( <= ( - 1 ) Nl8arg13 ) ( <= Nl8arg13 1 ) ( <= ( - 1 ) Nl8arg23 ) ( <= Nl8arg23 1 ) ( <= ( - 1 ) Nl8arg33 ) ( <= Nl8arg33 1 ) ( <= ( - 1 ) Nl8arg53 ) ( <= Nl8arg53 1 ) ))
(assert ( or ( and ( >= lam0n0 0 ) ( >= lam0n1 0 ) ( >= lam0n2 0 ) ( >= lam0n3 0 ) ( >= lam0n4 0 ) ( >= lam0n5 0 ) ( >= lam0n6 0 ) ( >= lam0n7 0 ) ( >= lam0n8 0 ) ( >= lam0n9 0 ) ( >= lam0n10 0 ) ( > ( + ( * 2 lam0n3 ) ( * 1 lam0n4 ) ( * 1 lam0n5 ) ( * 1 lam0n6 ) ( * 1 lam0n7 ) ( * Nl8CT1 lam0n8 ) ( * Nl8CT2 lam0n9 ) ( * Nl8CT3 lam0n10 ) ( - 1 ) ) 0 ) ( = ( + ( * ( - 1 ) lam0n0 ) ( * ( - 1 ) lam0n3 ) ( * ( - 1 ) lam0n4 ) ( * Nl8arg11 lam0n8 ) ( * Nl8arg12 lam0n9 ) ( * Nl8arg13 lam0n10 ) ) 0 ) ( = ( + ( * ( - 1 ) lam0n1 ) ( * ( - 1 ) lam0n5 ) ( * Nl8arg21 lam0n8 ) ( * Nl8arg22 lam0n9 ) ( * Nl8arg23 lam0n10 ) ) 0 ) ( = ( + ( * ( - 1 ) lam0n3 ) ( * ( - 1 ) lam0n6 ) ( * Nl8arg31 lam0n8 ) ( * Nl8arg32 lam0n9 ) ( * Nl8arg33 lam0n10 ) ) 0 ) ( = ( + ( * Nl8arg51 lam0n8 ) ( * Nl8arg52 lam0n9 ) ( * Nl8arg53 lam0n10 ) ) 0 ) ( = ( + ( * 1 lam0n0 ) ( * 1 lam0n1 ) ( * ( - 1 ) lam0n7 ) ) 0 ) ( = ( * ( - 1 ) lam0n2 ) 0 ) ) ( and ( >= lam1n0 0 ) ( >= lam1n1 0 ) ( >= lam1n2 0 ) ( >= lam1n3 0 ) ( >= lam1n4 0 ) ( >= lam1n5 0 ) ( >= lam1n6 0 ) ( >= lam1n7 0 ) ( >= lam1n8 0 ) ( >= lam1n9 0 ) ( >= lam1n10 0 ) ( > ( + ( * 2 lam1n3 ) ( * 1 lam1n4 ) ( * 1 lam1n5 ) ( * 1 lam1n6 ) ( * 1 lam1n7 ) ( * Nl8CT1 lam1n8 ) ( * Nl8CT2 lam1n9 ) ( * Nl8CT3 lam1n10 ) ( - 1 ( + ( + ( + Nl8CT1 ( * Nl8arg11 0 ) ) ( * Nl8arg21 0 ) ) ( * Nl8arg51 0 ) ) ) ) 0 ) ( = ( + ( * ( - 1 ) lam1n0 ) ( * ( - 1 ) lam1n3 ) ( * ( - 1 ) lam1n4 ) ( * Nl8arg11 lam1n8 ) ( * Nl8arg12 lam1n9 ) ( * Nl8arg13 lam1n10 ) ) 0 ) ( = ( + ( * ( - 1 ) lam1n1 ) ( * ( - 1 ) lam1n5 ) ( * Nl8arg21 lam1n8 ) ( * Nl8arg22 lam1n9 ) ( * Nl8arg23 lam1n10 ) ) 0 ) ( = ( + ( * ( - 1 ) lam1n3 ) ( * ( - 1 ) lam1n6 ) ( * Nl8arg31 lam1n8 ) ( * Nl8arg32 lam1n9 ) ( * Nl8arg33 lam1n10 ) ( - ( + 0 Nl8arg31 ) ) ) 0 ) ( = ( + ( * Nl8arg51 lam1n8 ) ( * Nl8arg52 lam1n9 ) ( * Nl8arg53 lam1n10 ) ) 0 ) ( = ( + ( * 1 lam1n0 ) ( * 1 lam1n1 ) ( * ( - 1 ) lam1n7 ) ( - ( + 0 ( * Nl8arg11 1 ) ) ) ) 0 ) ( = ( + ( * ( - 1 ) lam1n2 ) ( - ( + 0 ( * Nl8arg21 1 ) ) ) ) 0 ) ( = ( - ( + 0 ( * Nl8arg51 1 ) ) ) 0 ) ) ))
(assert ( or ( and ( >= lam0n0 0 ) ( >= lam0n1 0 ) ( >= lam0n2 0 ) ( >= lam0n3 0 ) ( >= lam0n4 0 ) ( >= lam0n5 0 ) ( >= lam0n6 0 ) ( >= lam0n7 0 ) ( >= lam0n8 0 ) ( >= lam0n9 0 ) ( >= lam0n10 0 ) ( > ( + ( * 2 lam0n3 ) ( * 1 lam0n4 ) ( * 1 lam0n5 ) ( * 1 lam0n6 ) ( * 1 lam0n7 ) ( * Nl8CT1 lam0n8 ) ( * Nl8CT2 lam0n9 ) ( * Nl8CT3 lam0n10 ) ( - 1 ) ) 0 ) ( = ( + ( * ( - 1 ) lam0n0 ) ( * ( - 1 ) lam0n3 ) ( * ( - 1 ) lam0n4 ) ( * Nl8arg11 lam0n8 ) ( * Nl8arg12 lam0n9 ) ( * Nl8arg13 lam0n10 ) ) 0 ) ( = ( + ( * ( - 1 ) lam0n1 ) ( * ( - 1 ) lam0n5 ) ( * Nl8arg21 lam0n8 ) ( * Nl8arg22 lam0n9 ) ( * Nl8arg23 lam0n10 ) ) 0 ) ( = ( + ( * ( - 1 ) lam0n3 ) ( * ( - 1 ) lam0n6 ) ( * Nl8arg31 lam0n8 ) ( * Nl8arg32 lam0n9 ) ( * Nl8arg33 lam0n10 ) ) 0 ) ( = ( + ( * Nl8arg51 lam0n8 ) ( * Nl8arg52 lam0n9 ) ( * Nl8arg53 lam0n10 ) ) 0 ) ( = ( + ( * 1 lam0n0 ) ( * 1 lam0n1 ) ( * ( - 1 ) lam0n7 ) ) 0 ) ( = ( * ( - 1 ) lam0n2 ) 0 ) ) ( and ( >= lam2n0 0 ) ( >= lam2n1 0 ) ( >= lam2n2 0 ) ( >= lam2n3 0 ) ( >= lam2n4 0 ) ( >= lam2n5 0 ) ( >= lam2n6 0 ) ( >= lam2n7 0 ) ( >= lam2n8 0 ) ( >= lam2n9 0 ) ( >= lam2n10 0 ) ( > ( + ( * 2 lam2n3 ) ( * 1 lam2n4 ) ( * 1 lam2n5 ) ( * 1 lam2n6 ) ( * 1 lam2n7 ) ( * Nl8CT1 lam2n8 ) ( * Nl8CT2 lam2n9 ) ( * Nl8CT3 lam2n10 ) ( - 1 ( + ( + ( + Nl8CT2 ( * Nl8arg12 0 ) ) ( * Nl8arg22 0 ) ) ( * Nl8arg52 0 ) ) ) ) 0 ) ( = ( + ( * ( - 1 ) lam2n0 ) ( * ( - 1 ) lam2n3 ) ( * ( - 1 ) lam2n4 ) ( * Nl8arg11 lam2n8 ) ( * Nl8arg12 lam2n9 ) ( * Nl8arg13 lam2n10 ) ) 0 ) ( = ( + ( * ( - 1 ) lam2n1 ) ( * ( - 1 ) lam2n5 ) ( * Nl8arg21 lam2n8 ) ( * Nl8arg22 lam2n9 ) ( * Nl8arg23 lam2n10 ) ) 0 ) ( = ( + ( * ( - 1 ) lam2n3 ) ( * ( - 1 ) lam2n6 ) ( * Nl8arg31 lam2n8 ) ( * Nl8arg32 lam2n9 ) ( * Nl8arg33 lam2n10 ) ( - ( + 0 Nl8arg32 ) ) ) 0 ) ( = ( + ( * Nl8arg51 lam2n8 ) ( * Nl8arg52 lam2n9 ) ( * Nl8arg53 lam2n10 ) ) 0 ) ( = ( + ( * 1 lam2n0 ) ( * 1 lam2n1 ) ( * ( - 1 ) lam2n7 ) ( - ( + 0 ( * Nl8arg12 1 ) ) ) ) 0 ) ( = ( + ( * ( - 1 ) lam2n2 ) ( - ( + 0 ( * Nl8arg22 1 ) ) ) ) 0 ) ( = ( - ( + 0 ( * Nl8arg52 1 ) ) ) 0 ) ) ))
(assert ( or ( and ( >= lam0n0 0 ) ( >= lam0n1 0 ) ( >= lam0n2 0 ) ( >= lam0n3 0 ) ( >= lam0n4 0 ) ( >= lam0n5 0 ) ( >= lam0n6 0 ) ( >= lam0n7 0 ) ( >= lam0n8 0 ) ( >= lam0n9 0 ) ( >= lam0n10 0 ) ( > ( + ( * 2 lam0n3 ) ( * 1 lam0n4 ) ( * 1 lam0n5 ) ( * 1 lam0n6 ) ( * 1 lam0n7 ) ( * Nl8CT1 lam0n8 ) ( * Nl8CT2 lam0n9 ) ( * Nl8CT3 lam0n10 ) ( - 1 ) ) 0 ) ( = ( + ( * ( - 1 ) lam0n0 ) ( * ( - 1 ) lam0n3 ) ( * ( - 1 ) lam0n4 ) ( * Nl8arg11 lam0n8 ) ( * Nl8arg12 lam0n9 ) ( * Nl8arg13 lam0n10 ) ) 0 ) ( = ( + ( * ( - 1 ) lam0n1 ) ( * ( - 1 ) lam0n5 ) ( * Nl8arg21 lam0n8 ) ( * Nl8arg22 lam0n9 ) ( * Nl8arg23 lam0n10 ) ) 0 ) ( = ( + ( * ( - 1 ) lam0n3 ) ( * ( - 1 ) lam0n6 ) ( * Nl8arg31 lam0n8 ) ( * Nl8arg32 lam0n9 ) ( * Nl8arg33 lam0n10 ) ) 0 ) ( = ( + ( * Nl8arg51 lam0n8 ) ( * Nl8arg52 lam0n9 ) ( * Nl8arg53 lam0n10 ) ) 0 ) ( = ( + ( * 1 lam0n0 ) ( * 1 lam0n1 ) ( * ( - 1 ) lam0n7 ) ) 0 ) ( = ( * ( - 1 ) lam0n2 ) 0 ) ) ( and ( >= lam3n0 0 ) ( >= lam3n1 0 ) ( >= lam3n2 0 ) ( >= lam3n3 0 ) ( >= lam3n4 0 ) ( >= lam3n5 0 ) ( >= lam3n6 0 ) ( >= lam3n7 0 ) ( >= lam3n8 0 ) ( >= lam3n9 0 ) ( >= lam3n10 0 ) ( > ( + ( * 2 lam3n3 ) ( * 1 lam3n4 ) ( * 1 lam3n5 ) ( * 1 lam3n6 ) ( * 1 lam3n7 ) ( * Nl8CT1 lam3n8 ) ( * Nl8CT2 lam3n9 ) ( * Nl8CT3 lam3n10 ) ( - 1 ( + ( + ( + Nl8CT3 ( * Nl8arg13 0 ) ) ( * Nl8arg23 0 ) ) ( * Nl8arg53 0 ) ) ) ) 0 ) ( = ( + ( * ( - 1 ) lam3n0 ) ( * ( - 1 ) lam3n3 ) ( * ( - 1 ) lam3n4 ) ( * Nl8arg11 lam3n8 ) ( * Nl8arg12 lam3n9 ) ( * Nl8arg13 lam3n10 ) ) 0 ) ( = ( + ( * ( - 1 ) lam3n1 ) ( * ( - 1 ) lam3n5 ) ( * Nl8arg21 lam3n8 ) ( * Nl8arg22 lam3n9 ) ( * Nl8arg23 lam3n10 ) ) 0 ) ( = ( + ( * ( - 1 ) lam3n3 ) ( * ( - 1 ) lam3n6 ) ( * Nl8arg31 lam3n8 ) ( * Nl8arg32 lam3n9 ) ( * Nl8arg33 lam3n10 ) ( - ( + 0 Nl8arg33 ) ) ) 0 ) ( = ( + ( * Nl8arg51 lam3n8 ) ( * Nl8arg52 lam3n9 ) ( * Nl8arg53 lam3n10 ) ) 0 ) ( = ( + ( * 1 lam3n0 ) ( * 1 lam3n1 ) ( * ( - 1 ) lam3n7 ) ( - ( + 0 ( * Nl8arg13 1 ) ) ) ) 0 ) ( = ( + ( * ( - 1 ) lam3n2 ) ( - ( + 0 ( * Nl8arg23 1 ) ) ) ) 0 ) ( = ( - ( + 0 ( * Nl8arg53 1 ) ) ) 0 ) ) ))
(assert ( and ( <= ( + undef10 ( * ( - 1 ) undef406 ) ) 0 ) ( <= ( + ( * ( - 1 ) undef10 ) undef60 ) 0 ) ( <= ( + ( * ( - 1 ) undef11 ) undef60 ) 0 ) ( <= ( * ( - 1 ) undef69 ) 0 ) ( <= ( * ( - 1 ) undef407 ) 0 ) ( not ( <= ( + ( - 1 ) undef60 undef62 ) 0 ) ) ( <= ( + 2 ( * ( - 1 ) undef61 ) ) 0 ) ( <= ( + 1 ( * ( - 1 ) undef10 ) ) 0 ) ( <= ( + 1 ( * ( - 1 ) undef11 ) ) 0 ) ( <= ( + 1 ( * ( - 1 ) undef60 ) ) 0 ) ( not ( <= undef62 0 ) ) ( <= ( + 1 undef69 ( * ( - 1 ) undef70 ) ) 0 ) ( <= ( + 1 ( * ( - 1 ) undef70 ) ) 0 ) ( <= ( + 1 ( * ( - 1 ) undef406 ) ) 0 ) ( <= ( + ( + ( + ( + ( + Nl8CT1 ( * Nl8arg11 0 ) ) ( * Nl8arg21 0 ) ) ( * Nl8arg31 0 ) ) ( * Nl8arg51 0 ) ) ( * ( + 0 ( * Nl8arg11 1 ) ) undef60 ) ( * ( + 0 ( * Nl8arg21 1 ) ) undef61 ) ( * ( + 0 ( * Nl8arg31 1 ) ) undef62 ) ( * ( + 0 ( * Nl8arg51 1 ) ) undef64 ) ) 0 ) ( <= ( + ( + ( + ( + ( + Nl8CT2 ( * Nl8arg12 0 ) ) ( * Nl8arg22 0 ) ) ( * Nl8arg32 0 ) ) ( * Nl8arg52 0 ) ) ( * ( + 0 ( * Nl8arg12 1 ) ) undef60 ) ( * ( + 0 ( * Nl8arg22 1 ) ) undef61 ) ( * ( + 0 ( * Nl8arg32 1 ) ) undef62 ) ( * ( + 0 ( * Nl8arg52 1 ) ) undef64 ) ) 0 ) ( <= ( + ( + ( + ( + ( + Nl8CT3 ( * Nl8arg13 0 ) ) ( * Nl8arg23 0 ) ) ( * Nl8arg33 0 ) ) ( * Nl8arg53 0 ) ) ( * ( + 0 ( * Nl8arg13 1 ) ) undef60 ) ( * ( + 0 ( * Nl8arg23 1 ) ) undef61 ) ( * ( + 0 ( * Nl8arg33 1 ) ) undef62 ) ( * ( + 0 ( * Nl8arg53 1 ) ) undef64 ) ) 0 ) ))
(assert ( or ( and ( and ( >= lam10n0 0 ) ( >= lam10n1 0 ) ( >= lam10n2 0 ) ( >= lam10n3 0 ) ( >= lam10n4 0 ) ( >= lam10n5 0 ) ( >= lam10n6 0 ) ( >= lam10n7 0 ) ( >= lam10n8 0 ) ( >= lam10n9 0 ) ( >= lam10n10 0 ) ( > ( + ( * 2 lam10n3 ) ( * 1 lam10n4 ) ( * 1 lam10n5 ) ( * 1 lam10n6 ) ( * 1 lam10n7 ) ( * Nl8CT1 lam10n8 ) ( * Nl8CT2 lam10n9 ) ( * Nl8CT3 lam10n10 ) ( - 1 ( - ( + ( + ( + RFN1_CT ( * RFN1_arg1 0 ) ) ( * RFN1_arg2 0 ) ) ( * RFN1_arg5 0 ) ) RFN1_CT ) ) ) 0 ) ( = ( + ( * ( - 1 ) lam10n0 ) ( * ( - 1 ) lam10n3 ) ( * ( - 1 ) lam10n4 ) ( * Nl8arg11 lam10n8 ) ( * Nl8arg12 lam10n9 ) ( * Nl8arg13 lam10n10 ) ( - ( - RFN1_arg1 ) ) ) 0 ) ( = ( + ( * ( - 1 ) lam10n1 ) ( * ( - 1 ) lam10n5 ) ( * Nl8arg21 lam10n8 ) ( * Nl8arg22 lam10n9 ) ( * Nl8arg23 lam10n10 ) ( - ( - RFN1_arg2 ) ) ) 0 ) ( = ( + ( * ( - 1 ) lam10n3 ) ( * ( - 1 ) lam10n6 ) ( * Nl8arg31 lam10n8 ) ( * Nl8arg32 lam10n9 ) ( * Nl8arg33 lam10n10 ) ( - ( - ( + 0 RFN1_arg3 ) RFN1_arg3 ) ) ) 0 ) ( = ( + ( * Nl8arg51 lam10n8 ) ( * Nl8arg52 lam10n9 ) ( * Nl8arg53 lam10n10 ) ( - ( - RFN1_arg5 ) ) ) 0 ) ( = ( + ( * 1 lam10n0 ) ( * 1 lam10n1 ) ( * ( - 1 ) lam10n7 ) ( - ( + 0 ( * RFN1_arg1 1 ) ) ) ) 0 ) ( = ( + ( * ( - 1 ) lam10n2 ) ( - ( + 0 ( * RFN1_arg2 1 ) ) ) ) 0 ) ( = ( - ( + 0 ( * RFN1_arg5 1 ) ) ) 0 ) ) ( and ( and ( >= lam8n0 0 ) ( >= lam8n1 0 ) ( >= lam8n2 0 ) ( >= lam8n3 0 ) ( >= lam8n4 0 ) ( >= lam8n5 0 ) ( >= lam8n6 0 ) ( >= lam8n7 0 ) ( >= lam8n8 0 ) ( >= lam8n9 0 ) ( >= lam8n10 0 ) ( > ( + ( * 2 lam8n3 ) ( * 1 lam8n4 ) ( * 1 lam8n5 ) ( * 1 lam8n6 ) ( * 1 lam8n7 ) ( * Nl8CT1 lam8n8 ) ( * Nl8CT2 lam8n9 ) ( * Nl8CT3 lam8n10 ) ( - 1 ( - RFN1_CT ) ) ) 0 ) ( = ( + ( * ( - 1 ) lam8n0 ) ( * ( - 1 ) lam8n3 ) ( * ( - 1 ) lam8n4 ) ( * Nl8arg11 lam8n8 ) ( * Nl8arg12 lam8n9 ) ( * Nl8arg13 lam8n10 ) ( - ( - RFN1_arg1 ) ) ) 0 ) ( = ( + ( * ( - 1 ) lam8n1 ) ( * ( - 1 ) lam8n5 ) ( * Nl8arg21 lam8n8 ) ( * Nl8arg22 lam8n9 ) ( * Nl8arg23 lam8n10 ) ( - ( - RFN1_arg2 ) ) ) 0 ) ( = ( + ( * ( - 1 ) lam8n3 ) ( * ( - 1 ) lam8n6 ) ( * Nl8arg31 lam8n8 ) ( * Nl8arg32 lam8n9 ) ( * Nl8arg33 lam8n10 ) ( - ( - RFN1_arg3 ) ) ) 0 ) ( = ( + ( * Nl8arg51 lam8n8 ) ( * Nl8arg52 lam8n9 ) ( * Nl8arg53 lam8n10 ) ( - ( - RFN1_arg5 ) ) ) 0 ) ( = ( + ( * 1 lam8n0 ) ( * 1 lam8n1 ) ( * ( - 1 ) lam8n7 ) ) 0 ) ( = ( * ( - 1 ) lam8n2 ) 0 ) ) ( and ( >= lam9n0 0 ) ( >= lam9n1 0 ) ( >= lam9n2 0 ) ( >= lam9n3 0 ) ( >= lam9n4 0 ) ( >= lam9n5 0 ) ( >= lam9n6 0 ) ( >= lam9n7 0 ) ( >= lam9n8 0 ) ( >= lam9n9 0 ) ( >= lam9n10 0 ) ( > ( + ( * 2 lam9n3 ) ( * 1 lam9n4 ) ( * 1 lam9n5 ) ( * 1 lam9n6 ) ( * 1 lam9n7 ) ( * Nl8CT1 lam9n8 ) ( * Nl8CT2 lam9n9 ) ( * Nl8CT3 lam9n10 ) ( - 1 ( + ( - ( + ( + ( + RFN1_CT ( * RFN1_arg1 0 ) ) ( * RFN1_arg2 0 ) ) ( * RFN1_arg5 0 ) ) RFN1_CT ) 1 ) ) ) 0 ) ( = ( + ( * ( - 1 ) lam9n0 ) ( * ( - 1 ) lam9n3 ) ( * ( - 1 ) lam9n4 ) ( * Nl8arg11 lam9n8 ) ( * Nl8arg12 lam9n9 ) ( * Nl8arg13 lam9n10 ) ( - ( - RFN1_arg1 ) ) ) 0 ) ( = ( + ( * ( - 1 ) lam9n1 ) ( * ( - 1 ) lam9n5 ) ( * Nl8arg21 lam9n8 ) ( * Nl8arg22 lam9n9 ) ( * Nl8arg23 lam9n10 ) ( - ( - RFN1_arg2 ) ) ) 0 ) ( = ( + ( * ( - 1 ) lam9n3 ) ( * ( - 1 ) lam9n6 ) ( * Nl8arg31 lam9n8 ) ( * Nl8arg32 lam9n9 ) ( * Nl8arg33 lam9n10 ) ( - ( - ( + 0 RFN1_arg3 ) RFN1_arg3 ) ) ) 0 ) ( = ( + ( * Nl8arg51 lam9n8 ) ( * Nl8arg52 lam9n9 ) ( * Nl8arg53 lam9n10 ) ( - ( - RFN1_arg5 ) ) ) 0 ) ( = ( + ( * 1 lam9n0 ) ( * 1 lam9n1 ) ( * ( - 1 ) lam9n7 ) ( - ( + 0 ( * RFN1_arg1 1 ) ) ) ) 0 ) ( = ( + ( * ( - 1 ) lam9n2 ) ( - ( + 0 ( * RFN1_arg2 1 ) ) ) ) 0 ) ( = ( - ( + 0 ( * RFN1_arg5 1 ) ) ) 0 ) ) ) ) ( and ( >= lam7n0 0 ) ( >= lam7n1 0 ) ( >= lam7n2 0 ) ( >= lam7n3 0 ) ( >= lam7n4 0 ) ( >= lam7n5 0 ) ( >= lam7n6 0 ) ( >= lam7n7 0 ) ( >= lam7n8 0 ) ( >= lam7n9 0 ) ( >= lam7n10 0 ) ( > ( + ( * 2 lam7n3 ) ( * 1 lam7n4 ) ( * 1 lam7n5 ) ( * 1 lam7n6 ) ( * 1 lam7n7 ) ( * Nl8CT1 lam7n8 ) ( * Nl8CT2 lam7n9 ) ( * Nl8CT3 lam7n10 ) ( - 1 ) ) 0 ) ( = ( + ( * ( - 1 ) lam7n0 ) ( * ( - 1 ) lam7n3 ) ( * ( - 1 ) lam7n4 ) ( * Nl8arg11 lam7n8 ) ( * Nl8arg12 lam7n9 ) ( * Nl8arg13 lam7n10 ) ) 0 ) ( = ( + ( * ( - 1 ) lam7n1 ) ( * ( - 1 ) lam7n5 ) ( * Nl8arg21 lam7n8 ) ( * Nl8arg22 lam7n9 ) ( * Nl8arg23 lam7n10 ) ) 0 ) ( = ( + ( * ( - 1 ) lam7n3 ) ( * ( - 1 ) lam7n6 ) ( * Nl8arg31 lam7n8 ) ( * Nl8arg32 lam7n9 ) ( * Nl8arg33 lam7n10 ) ) 0 ) ( = ( + ( * Nl8arg51 lam7n8 ) ( * Nl8arg52 lam7n9 ) ( * Nl8arg53 lam7n10 ) ) 0 ) ( = ( + ( * 1 lam7n0 ) ( * 1 lam7n1 ) ( * ( - 1 ) lam7n7 ) ) 0 ) ( = ( * ( - 1 ) lam7n2 ) 0 ) ) ))
(check-sat)
(exit)
